\ENCODING=ISO-8859-1
\Problem name: 

Maximize
 obj1: 5 x1 + 5 x2 + 5 x3 + 5 x4 + 5 x5 + 5 x6 + 5 x7 + 5 x8 + 5 x9 + 5 x10
       - x622
Subject To
 c1:  - x1 + x11 + x12 + x13 + x14 + x15 + x16 + x17 + x18 + x19 + x20 + x21
      + x22 + x23 + x24 + x25 + x26 + x27 + x28 + x29 + x30 + x31 + x32 + x33
      + x34 + x35 + x36 + x37 + x38 + x39 + x40  = 0
 c2:  - x2 + x41 + x42 + x43 + x44 + x45 + x46 + x47 + x48 + x49 + x50 + x51
      + x52 + x53 + x54 + x55 + x56 + x57 + x58 + x59 + x60 + x61 + x62 + x63
      + x64 + x65 + x66 + x67 + x68 + x69 + x70  = 0
 c3:  - x3 + x71 + x72 + x73 + x74 + x75 + x76 + x77 + x78 + x79 + x80 + x81
      + x82 + x83 + x84 + x85 + x86 + x87 + x88 + x89 + x90 + x91 + x92 + x93
      + x94 + x95 + x96 + x97 + x98 + x99 + x100  = 0
 c4:  - x4 + x101 + x102 + x103 + x104 + x105 + x106 + x107 + x108 + x109
      + x110 + x111 + x112 + x113 + x114 + x115 + x116 + x117 + x118 + x119
      + x120 + x121 + x122 + x123 + x124 + x125 + x126 + x127 + x128 + x129
      + x130  = 0
 c5:  - x5 + x131 + x132 + x133 + x134 + x135 + x136 + x137 + x138 + x139
      + x140 + x141 + x142 + x143 + x144 + x145 + x146 + x147 + x148 + x149
      + x150 + x151 + x152 + x153 + x154 + x155 + x156 + x157 + x158 + x159
      + x160  = 0
 c6:  - x6 + x161 + x162 + x163 + x164 + x165 + x166 + x167 + x168 + x169
      + x170 + x171 + x172 + x173 + x174 + x175 + x176 + x177 + x178 + x179
      + x180 + x181 + x182 + x183 + x184 + x185 + x186 + x187 + x188 + x189
      + x190  = 0
 c7:  - x7 + x191 + x192 + x193 + x194 + x195 + x196 + x197 + x198 + x199
      + x200 + x201 + x202 + x203 + x204 + x205 + x206 + x207 + x208 + x209
      + x210 + x211 + x212 + x213 + x214 + x215 + x216 + x217 + x218 + x219
      + x220  = 0
 c8:  - x8 + x221 + x222 + x223 + x224 + x225 + x226 + x227 + x228 + x229
      + x230 + x231 + x232 + x233 + x234 + x235 + x236 + x237 + x238 + x239
      + x240 + x241 + x242 + x243 + x244 + x245 + x246 + x247 + x248 + x249
      + x250  = 0
 c9:  - x9 + x251 + x252 + x253 + x254 + x255 + x256 + x257 + x258 + x259
      + x260 + x261 + x262 + x263 + x264 + x265 + x266 + x267 + x268 + x269
      + x270 + x271 + x272 + x273 + x274 + x275 + x276 + x277 + x278 + x279
      + x280  = 0
 c10: - x10 + x281 + x282 + x283 + x284 + x285 + x286 + x287 + x288 + x289
      + x290 + x291 + x292 + x293 + x294 + x295 + x296 + x297 + x298 + x299
      + x300 + x301 + x302 + x303 + x304 + x305 + x306 + x307 + x308 + x309
      + x310  = 0
 c11: x311 + x312 + x313 + x314 + x315 + x316 + x317 + x318 + x319 + x320 <= 1
 c12: x321 + x322 + x323 + x324 + x325 + x326 + x327 + x328 + x329 + x330 <= 1
 c13: x331 + x332 + x333 + x334 + x335 + x336 + x337 + x338 + x339 + x340 <= 1
 c14: x341 + x342 + x343 + x344 + x345 + x346 + x347 + x348 + x349 + x350 <= 1
 c15: x351 + x352 + x353 + x354 + x355 + x356 + x357 + x358 + x359 + x360 <= 1
 c16: x361 + x362 + x363 + x364 + x365 + x366 + x367 + x368 + x369 + x370 <= 1
 c17: x371 + x372 + x373 + x374 + x375 + x376 + x377 + x378 + x379 + x380 <= 1
 c18: x381 + x382 + x383 + x384 + x385 + x386 + x387 + x388 + x389 + x390 <= 1
 c19: x391 + x392 + x393 + x394 + x395 + x396 + x397 + x398 + x399 + x400 <= 1
 c20: x401 + x402 + x403 + x404 + x405 + x406 + x407 + x408 + x409 + x410 <= 1
 c21: x411 + x412 + x413 + x414 + x415 + x416 + x417 + x418 + x419 + x420 <= 1
 c22: x421 + x422 + x423 + x424 + x425 + x426 + x427 + x428 + x429 + x430 <= 1
 c23: x431 + x432 + x433 + x434 + x435 + x436 + x437 + x438 + x439 + x440 <= 1
 c24: x441 + x442 + x443 + x444 + x445 + x446 + x447 + x448 + x449 + x450 <= 1
 c25: x451 + x452 + x453 + x454 + x455 + x456 + x457 + x458 + x459 + x460 <= 1
 c26: x461 + x462 + x463 + x464 + x465 + x466 + x467 + x468 + x469 + x470 <= 1
 c27: x471 + x472 + x473 + x474 + x475 + x476 + x477 + x478 + x479 + x480 <= 1
 c28: x481 + x482 + x483 + x484 + x485 + x486 + x487 + x488 + x489 + x490 <= 1
 c29: x491 + x492 + x493 + x494 + x495 + x496 + x497 + x498 + x499 + x500 <= 1
 c30: x501 + x502 + x503 + x504 + x505 + x506 + x507 + x508 + x509 + x510 <= 1
 c31: x511 + x512 + x513 + x514 + x515 + x516 + x517 + x518 + x519 + x520 <= 1
 c32: x521 + x522 + x523 + x524 + x525 + x526 + x527 + x528 + x529 + x530 <= 1
 c33: x531 + x532 + x533 + x534 + x535 + x536 + x537 + x538 + x539 + x540 <= 1
 c34: x541 + x542 + x543 + x544 + x545 + x546 + x547 + x548 + x549 + x550 <= 1
 c35: x551 + x552 + x553 + x554 + x555 + x556 + x557 + x558 + x559 + x560 <= 1
 c36: x561 + x562 + x563 + x564 + x565 + x566 + x567 + x568 + x569 + x570 <= 1
 c37: x571 + x572 + x573 + x574 + x575 + x576 + x577 + x578 + x579 + x580 <= 1
 c38: x581 + x582 + x583 + x584 + x585 + x586 + x587 + x588 + x589 + x590 <= 1
 c39: x591 + x592 + x593 + x594 + x595 + x596 + x597 + x598 + x599 + x600 <= 1
 c40: x601 + x602 + x603 + x604 + x605 + x606 + x607 + x608 + x609 + x610 <= 1
 c41: x11 + x41 + x71 + x101 + x131 + x161 + x191 + x221 + x251 + x281 <= 1
 c42: x12 + x42 + x72 + x102 + x132 + x162 + x192 + x222 + x252 + x282 <= 1
 c43: x13 + x43 + x73 + x103 + x133 + x163 + x193 + x223 + x253 + x283 <= 1
 c44: x14 + x44 + x74 + x104 + x134 + x164 + x194 + x224 + x254 + x284 <= 1
 c45: x15 + x45 + x75 + x105 + x135 + x165 + x195 + x225 + x255 + x285 <= 1
 c46: x16 + x46 + x76 + x106 + x136 + x166 + x196 + x226 + x256 + x286 <= 1
 c47: x17 + x47 + x77 + x107 + x137 + x167 + x197 + x227 + x257 + x287 <= 1
 c48: x18 + x48 + x78 + x108 + x138 + x168 + x198 + x228 + x258 + x288 <= 1
 c49: x19 + x49 + x79 + x109 + x139 + x169 + x199 + x229 + x259 + x289 <= 1
 c50: x20 + x50 + x80 + x110 + x140 + x170 + x200 + x230 + x260 + x290 <= 1
 c51: x21 + x51 + x81 + x111 + x141 + x171 + x201 + x231 + x261 + x291 <= 1
 c52: x22 + x52 + x82 + x112 + x142 + x172 + x202 + x232 + x262 + x292 <= 1
 c53: x23 + x53 + x83 + x113 + x143 + x173 + x203 + x233 + x263 + x293 <= 1
 c54: x24 + x54 + x84 + x114 + x144 + x174 + x204 + x234 + x264 + x294 <= 1
 c55: x25 + x55 + x85 + x115 + x145 + x175 + x205 + x235 + x265 + x295 <= 1
 c56: x26 + x56 + x86 + x116 + x146 + x176 + x206 + x236 + x266 + x296 <= 1
 c57: x27 + x57 + x87 + x117 + x147 + x177 + x207 + x237 + x267 + x297 <= 1
 c58: x28 + x58 + x88 + x118 + x148 + x178 + x208 + x238 + x268 + x298 <= 1
 c59: x29 + x59 + x89 + x119 + x149 + x179 + x209 + x239 + x269 + x299 <= 1
 c60: x30 + x60 + x90 + x120 + x150 + x180 + x210 + x240 + x270 + x300 <= 1
 c61: x31 + x61 + x91 + x121 + x151 + x181 + x211 + x241 + x271 + x301 <= 1
 c62: x32 + x62 + x92 + x122 + x152 + x182 + x212 + x242 + x272 + x302 <= 1
 c63: x33 + x63 + x93 + x123 + x153 + x183 + x213 + x243 + x273 + x303 <= 1
 c64: x34 + x64 + x94 + x124 + x154 + x184 + x214 + x244 + x274 + x304 <= 1
 c65: x35 + x65 + x95 + x125 + x155 + x185 + x215 + x245 + x275 + x305 <= 1
 c66: x36 + x66 + x96 + x126 + x156 + x186 + x216 + x246 + x276 + x306 <= 1
 c67: x37 + x67 + x97 + x127 + x157 + x187 + x217 + x247 + x277 + x307 <= 1
 c68: x38 + x68 + x98 + x128 + x158 + x188 + x218 + x248 + x278 + x308 <= 1
 c69: x39 + x69 + x99 + x129 + x159 + x189 + x219 + x249 + x279 + x309 <= 1
 c70: x40 + x70 + x100 + x130 + x160 + x190 + x220 + x250 + x280 + x310 <= 1
 c71: x11 + x12 + x13 + x14 + x15 + x16 + x17 + x18 + x19 + x20 + x21 + x22
      + x23 + x24 + x25 + x26 + x27 + x28 + x29 + x30 + x31 + x32 + x33 + x34
      + x35 + x36 + x37 + x38 + x39 + x40 + x41 + x42 + x43 + x44 + x45 + x46
      + x47 + x48 + x49 + x50 + x51 + x52 + x53 + x54 + x55 + x56 + x57 + x58
      + x59 + x60 + x61 + x62 + x63 + x64 + x65 + x66 + x67 + x68 + x69 + x70
      + x71 + x72 + x73 + x74 + x75 + x76 + x77 + x78 + x79 + x80 + x81 + x82
      + x83 + x84 + x85 + x86 + x87 + x88 + x89 + x90 + x91 + x92 + x93 + x94
      + x95 + x96 + x97 + x98 + x99 + x100 + x101 + x102 + x103 + x104 + x105
      + x106 + x107 + x108 + x109 + x110 + x111 + x112 + x113 + x114 + x115
      + x116 + x117 + x118 + x119 + x120 + x121 + x122 + x123 + x124 + x125
      + x126 + x127 + x128 + x129 + x130 + x131 + x132 + x133 + x134 + x135
      + x136 + x137 + x138 + x139 + x140 + x141 + x142 + x143 + x144 + x145
      + x146 + x147 + x148 + x149 + x150 + x151 + x152 + x153 + x154 + x155
      + x156 + x157 + x158 + x159 + x160 + x161 + x162 + x163 + x164 + x165
      + x166 + x167 + x168 + x169 + x170 + x171 + x172 + x173 + x174 + x175
      + x176 + x177 + x178 + x179 + x180 + x181 + x182 + x183 + x184 + x185
      + x186 + x187 + x188 + x189 + x190 + x191 + x192 + x193 + x194 + x195
      + x196 + x197 + x198 + x199 + x200 + x201 + x202 + x203 + x204 + x205
      + x206 + x207 + x208 + x209 + x210 + x211 + x212 + x213 + x214 + x215
      + x216 + x217 + x218 + x219 + x220 + x221 + x222 + x223 + x224 + x225
      + x226 + x227 + x228 + x229 + x230 + x231 + x232 + x233 + x234 + x235
      + x236 + x237 + x238 + x239 + x240 + x241 + x242 + x243 + x244 + x245
      + x246 + x247 + x248 + x249 + x250 + x251 + x252 + x253 + x254 + x255
      + x256 + x257 + x258 + x259 + x260 + x261 + x262 + x263 + x264 + x265
      + x266 + x267 + x268 + x269 + x270 + x271 + x272 + x273 + x274 + x275
      + x276 + x277 + x278 + x279 + x280 + x281 + x282 + x283 + x284 + x285
      + x286 + x287 + x288 + x289 + x290 + x291 + x292 + x293 + x294 + x295
      + x296 + x297 + x298 + x299 + x300 + x301 + x302 + x303 + x304 + x305
      + x306 + x307 + x308 + x309 + x310 - x622  = 0
 c72: x611 + x612 + x613 + x614 + x615 + x616 <= 5
 c73: x617 + x618 + x619 + x620 + x621 <= 4
Bounds
 0 <= x1 <= 1
 0 <= x2 <= 1
 0 <= x3 <= 1
 0 <= x4 <= 1
 0 <= x5 <= 1
 0 <= x6 <= 1
 0 <= x7 <= 1
 0 <= x8 <= 1
 0 <= x9 <= 1
 0 <= x10 <= 1
 0 <= x11 <= 1
 0 <= x12 <= 1
 0 <= x13 <= 1
 0 <= x14 <= 1
 0 <= x15 <= 1
 0 <= x16 <= 1
 0 <= x17 <= 1
 0 <= x18 <= 1
 0 <= x19 <= 1
 0 <= x20 <= 1
 0 <= x21 <= 1
 0 <= x22 <= 1
 0 <= x23 <= 1
 0 <= x24 <= 1
 0 <= x25 <= 1
 0 <= x26 <= 1
 0 <= x27 <= 1
 0 <= x28 <= 1
 0 <= x29 <= 1
 0 <= x30 <= 1
 0 <= x31 <= 1
 0 <= x32 <= 1
 0 <= x33 <= 1
 0 <= x34 <= 1
 0 <= x35 <= 1
 0 <= x36 <= 1
 0 <= x37 <= 1
 0 <= x38 <= 1
 0 <= x39 <= 1
 0 <= x40 <= 1
 0 <= x41 <= 1
 0 <= x42 <= 1
 0 <= x43 <= 1
 0 <= x44 <= 1
 0 <= x45 <= 1
 0 <= x46 <= 1
 0 <= x47 <= 1
 0 <= x48 <= 1
 0 <= x49 <= 1
 0 <= x50 <= 1
 0 <= x51 <= 1
 0 <= x52 <= 1
 0 <= x53 <= 1
 0 <= x54 <= 1
 0 <= x55 <= 1
 0 <= x56 <= 1
 0 <= x57 <= 1
 0 <= x58 <= 1
 0 <= x59 <= 1
 0 <= x60 <= 1
 0 <= x61 <= 1
 0 <= x62 <= 1
 0 <= x63 <= 1
 0 <= x64 <= 1
 0 <= x65 <= 1
 0 <= x66 <= 1
 0 <= x67 <= 1
 0 <= x68 <= 1
 0 <= x69 <= 1
 0 <= x70 <= 1
 0 <= x71 <= 1
 0 <= x72 <= 1
 0 <= x73 <= 1
 0 <= x74 <= 1
 0 <= x75 <= 1
 0 <= x76 <= 1
 0 <= x77 <= 1
 0 <= x78 <= 1
 0 <= x79 <= 1
 0 <= x80 <= 1
 0 <= x81 <= 1
 0 <= x82 <= 1
 0 <= x83 <= 1
 0 <= x84 <= 1
 0 <= x85 <= 1
 0 <= x86 <= 1
 0 <= x87 <= 1
 0 <= x88 <= 1
 0 <= x89 <= 1
 0 <= x90 <= 1
 0 <= x91 <= 1
 0 <= x92 <= 1
 0 <= x93 <= 1
 0 <= x94 <= 1
 0 <= x95 <= 1
 0 <= x96 <= 1
 0 <= x97 <= 1
 0 <= x98 <= 1
 0 <= x99 <= 1
 0 <= x100 <= 1
 0 <= x101 <= 1
 0 <= x102 <= 1
 0 <= x103 <= 1
 0 <= x104 <= 1
 0 <= x105 <= 1
 0 <= x106 <= 1
 0 <= x107 <= 1
 0 <= x108 <= 1
 0 <= x109 <= 1
 0 <= x110 <= 1
 0 <= x111 <= 1
 0 <= x112 <= 1
 0 <= x113 <= 1
 0 <= x114 <= 1
 0 <= x115 <= 1
 0 <= x116 <= 1
 0 <= x117 <= 1
 0 <= x118 <= 1
 0 <= x119 <= 1
 0 <= x120 <= 1
 0 <= x121 <= 1
 0 <= x122 <= 1
 0 <= x123 <= 1
 0 <= x124 <= 1
 0 <= x125 <= 1
 0 <= x126 <= 1
 0 <= x127 <= 1
 0 <= x128 <= 1
 0 <= x129 <= 1
 0 <= x130 <= 1
 0 <= x131 <= 1
 0 <= x132 <= 1
 0 <= x133 <= 1
 0 <= x134 <= 1
 0 <= x135 <= 1
 0 <= x136 <= 1
 0 <= x137 <= 1
 0 <= x138 <= 1
 0 <= x139 <= 1
 0 <= x140 <= 1
 0 <= x141 <= 1
 0 <= x142 <= 1
 0 <= x143 <= 1
 0 <= x144 <= 1
 0 <= x145 <= 1
 0 <= x146 <= 1
 0 <= x147 <= 1
 0 <= x148 <= 1
 0 <= x149 <= 1
 0 <= x150 <= 1
 0 <= x151 <= 1
 0 <= x152 <= 1
 0 <= x153 <= 1
 0 <= x154 <= 1
 0 <= x155 <= 1
 0 <= x156 <= 1
 0 <= x157 <= 1
 0 <= x158 <= 1
 0 <= x159 <= 1
 0 <= x160 <= 1
 0 <= x161 <= 1
 0 <= x162 <= 1
 0 <= x163 <= 1
 0 <= x164 <= 1
 0 <= x165 <= 1
 0 <= x166 <= 1
 0 <= x167 <= 1
 0 <= x168 <= 1
 0 <= x169 <= 1
 0 <= x170 <= 1
 0 <= x171 <= 1
 0 <= x172 <= 1
 0 <= x173 <= 1
 0 <= x174 <= 1
 0 <= x175 <= 1
 0 <= x176 <= 1
 0 <= x177 <= 1
 0 <= x178 <= 1
 0 <= x179 <= 1
 0 <= x180 <= 1
 0 <= x181 <= 1
 0 <= x182 <= 1
 0 <= x183 <= 1
 0 <= x184 <= 1
 0 <= x185 <= 1
 0 <= x186 <= 1
 0 <= x187 <= 1
 0 <= x188 <= 1
 0 <= x189 <= 1
 0 <= x190 <= 1
 0 <= x191 <= 1
 0 <= x192 <= 1
 0 <= x193 <= 1
 0 <= x194 <= 1
 0 <= x195 <= 1
 0 <= x196 <= 1
 0 <= x197 <= 1
 0 <= x198 <= 1
 0 <= x199 <= 1
 0 <= x200 <= 1
 0 <= x201 <= 1
 0 <= x202 <= 1
 0 <= x203 <= 1
 0 <= x204 <= 1
 0 <= x205 <= 1
 0 <= x206 <= 1
 0 <= x207 <= 1
 0 <= x208 <= 1
 0 <= x209 <= 1
 0 <= x210 <= 1
 0 <= x211 <= 1
 0 <= x212 <= 1
 0 <= x213 <= 1
 0 <= x214 <= 1
 0 <= x215 <= 1
 0 <= x216 <= 1
 0 <= x217 <= 1
 0 <= x218 <= 1
 0 <= x219 <= 1
 0 <= x220 <= 1
 0 <= x221 <= 1
 0 <= x222 <= 1
 0 <= x223 <= 1
 0 <= x224 <= 1
 0 <= x225 <= 1
 0 <= x226 <= 1
 0 <= x227 <= 1
 0 <= x228 <= 1
 0 <= x229 <= 1
 0 <= x230 <= 1
 0 <= x231 <= 1
 0 <= x232 <= 1
 0 <= x233 <= 1
 0 <= x234 <= 1
 0 <= x235 <= 1
 0 <= x236 <= 1
 0 <= x237 <= 1
 0 <= x238 <= 1
 0 <= x239 <= 1
 0 <= x240 <= 1
 0 <= x241 <= 1
 0 <= x242 <= 1
 0 <= x243 <= 1
 0 <= x244 <= 1
 0 <= x245 <= 1
 0 <= x246 <= 1
 0 <= x247 <= 1
 0 <= x248 <= 1
 0 <= x249 <= 1
 0 <= x250 <= 1
 0 <= x251 <= 1
 0 <= x252 <= 1
 0 <= x253 <= 1
 0 <= x254 <= 1
 0 <= x255 <= 1
 0 <= x256 <= 1
 0 <= x257 <= 1
 0 <= x258 <= 1
 0 <= x259 <= 1
 0 <= x260 <= 1
 0 <= x261 <= 1
 0 <= x262 <= 1
 0 <= x263 <= 1
 0 <= x264 <= 1
 0 <= x265 <= 1
 0 <= x266 <= 1
 0 <= x267 <= 1
 0 <= x268 <= 1
 0 <= x269 <= 1
 0 <= x270 <= 1
 0 <= x271 <= 1
 0 <= x272 <= 1
 0 <= x273 <= 1
 0 <= x274 <= 1
 0 <= x275 <= 1
 0 <= x276 <= 1
 0 <= x277 <= 1
 0 <= x278 <= 1
 0 <= x279 <= 1
 0 <= x280 <= 1
 0 <= x281 <= 1
 0 <= x282 <= 1
 0 <= x283 <= 1
 0 <= x284 <= 1
 0 <= x285 <= 1
 0 <= x286 <= 1
 0 <= x287 <= 1
 0 <= x288 <= 1
 0 <= x289 <= 1
 0 <= x290 <= 1
 0 <= x291 <= 1
 0 <= x292 <= 1
 0 <= x293 <= 1
 0 <= x294 <= 1
 0 <= x295 <= 1
 0 <= x296 <= 1
 0 <= x297 <= 1
 0 <= x298 <= 1
 0 <= x299 <= 1
 0 <= x300 <= 1
 0 <= x301 <= 1
 0 <= x302 <= 1
 0 <= x303 <= 1
 0 <= x304 <= 1
 0 <= x305 <= 1
 0 <= x306 <= 1
 0 <= x307 <= 1
 0 <= x308 <= 1
 0 <= x309 <= 1
 0 <= x310 <= 1
 0 <= x311 <= 1
 0 <= x312 <= 1
 0 <= x313 <= 1
 0 <= x314 <= 1
 0 <= x315 <= 1
 0 <= x316 <= 1
 0 <= x317 <= 1
 0 <= x318 <= 1
 0 <= x319 <= 1
 0 <= x320 <= 1
 0 <= x321 <= 1
 0 <= x322 <= 1
 0 <= x323 <= 1
 0 <= x324 <= 1
 0 <= x325 <= 1
 0 <= x326 <= 1
 0 <= x327 <= 1
 0 <= x328 <= 1
 0 <= x329 <= 1
 0 <= x330 <= 1
 0 <= x331 <= 1
 0 <= x332 <= 1
 0 <= x333 <= 1
 0 <= x334 <= 1
 0 <= x335 <= 1
 0 <= x336 <= 1
 0 <= x337 <= 1
 0 <= x338 <= 1
 0 <= x339 <= 1
 0 <= x340 <= 1
 0 <= x341 <= 1
 0 <= x342 <= 1
 0 <= x343 <= 1
 0 <= x344 <= 1
 0 <= x345 <= 1
 0 <= x346 <= 1
 0 <= x347 <= 1
 0 <= x348 <= 1
 0 <= x349 <= 1
 0 <= x350 <= 1
 0 <= x351 <= 1
 0 <= x352 <= 1
 0 <= x353 <= 1
 0 <= x354 <= 1
 0 <= x355 <= 1
 0 <= x356 <= 1
 0 <= x357 <= 1
 0 <= x358 <= 1
 0 <= x359 <= 1
 0 <= x360 <= 1
 0 <= x361 <= 1
 0 <= x362 <= 1
 0 <= x363 <= 1
 0 <= x364 <= 1
 0 <= x365 <= 1
 0 <= x366 <= 1
 0 <= x367 <= 1
 0 <= x368 <= 1
 0 <= x369 <= 1
 0 <= x370 <= 1
 0 <= x371 <= 1
 0 <= x372 <= 1
 0 <= x373 <= 1
 0 <= x374 <= 1
 0 <= x375 <= 1
 0 <= x376 <= 1
 0 <= x377 <= 1
 0 <= x378 <= 1
 0 <= x379 <= 1
 0 <= x380 <= 1
 0 <= x381 <= 1
 0 <= x382 <= 1
 0 <= x383 <= 1
 0 <= x384 <= 1
 0 <= x385 <= 1
 0 <= x386 <= 1
 0 <= x387 <= 1
 0 <= x388 <= 1
 0 <= x389 <= 1
 0 <= x390 <= 1
 0 <= x391 <= 1
 0 <= x392 <= 1
 0 <= x393 <= 1
 0 <= x394 <= 1
 0 <= x395 <= 1
 0 <= x396 <= 1
 0 <= x397 <= 1
 0 <= x398 <= 1
 0 <= x399 <= 1
 0 <= x400 <= 1
 0 <= x401 <= 1
 0 <= x402 <= 1
 0 <= x403 <= 1
 0 <= x404 <= 1
 0 <= x405 <= 1
 0 <= x406 <= 1
 0 <= x407 <= 1
 0 <= x408 <= 1
 0 <= x409 <= 1
 0 <= x410 <= 1
 0 <= x411 <= 1
 0 <= x412 <= 1
 0 <= x413 <= 1
 0 <= x414 <= 1
 0 <= x415 <= 1
 0 <= x416 <= 1
 0 <= x417 <= 1
 0 <= x418 <= 1
 0 <= x419 <= 1
 0 <= x420 <= 1
 0 <= x421 <= 1
 0 <= x422 <= 1
 0 <= x423 <= 1
 0 <= x424 <= 1
 0 <= x425 <= 1
 0 <= x426 <= 1
 0 <= x427 <= 1
 0 <= x428 <= 1
 0 <= x429 <= 1
 0 <= x430 <= 1
 0 <= x431 <= 1
 0 <= x432 <= 1
 0 <= x433 <= 1
 0 <= x434 <= 1
 0 <= x435 <= 1
 0 <= x436 <= 1
 0 <= x437 <= 1
 0 <= x438 <= 1
 0 <= x439 <= 1
 0 <= x440 <= 1
 0 <= x441 <= 1
 0 <= x442 <= 1
 0 <= x443 <= 1
 0 <= x444 <= 1
 0 <= x445 <= 1
 0 <= x446 <= 1
 0 <= x447 <= 1
 0 <= x448 <= 1
 0 <= x449 <= 1
 0 <= x450 <= 1
 0 <= x451 <= 1
 0 <= x452 <= 1
 0 <= x453 <= 1
 0 <= x454 <= 1
 0 <= x455 <= 1
 0 <= x456 <= 1
 0 <= x457 <= 1
 0 <= x458 <= 1
 0 <= x459 <= 1
 0 <= x460 <= 1
 0 <= x461 <= 1
 0 <= x462 <= 1
 0 <= x463 <= 1
 0 <= x464 <= 1
 0 <= x465 <= 1
 0 <= x466 <= 1
 0 <= x467 <= 1
 0 <= x468 <= 1
 0 <= x469 <= 1
 0 <= x470 <= 1
 0 <= x471 <= 1
 0 <= x472 <= 1
 0 <= x473 <= 1
 0 <= x474 <= 1
 0 <= x475 <= 1
 0 <= x476 <= 1
 0 <= x477 <= 1
 0 <= x478 <= 1
 0 <= x479 <= 1
 0 <= x480 <= 1
 0 <= x481 <= 1
 0 <= x482 <= 1
 0 <= x483 <= 1
 0 <= x484 <= 1
 0 <= x485 <= 1
 0 <= x486 <= 1
 0 <= x487 <= 1
 0 <= x488 <= 1
 0 <= x489 <= 1
 0 <= x490 <= 1
 0 <= x491 <= 1
 0 <= x492 <= 1
 0 <= x493 <= 1
 0 <= x494 <= 1
 0 <= x495 <= 1
 0 <= x496 <= 1
 0 <= x497 <= 1
 0 <= x498 <= 1
 0 <= x499 <= 1
 0 <= x500 <= 1
 0 <= x501 <= 1
 0 <= x502 <= 1
 0 <= x503 <= 1
 0 <= x504 <= 1
 0 <= x505 <= 1
 0 <= x506 <= 1
 0 <= x507 <= 1
 0 <= x508 <= 1
 0 <= x509 <= 1
 0 <= x510 <= 1
 0 <= x511 <= 1
 0 <= x512 <= 1
 0 <= x513 <= 1
 0 <= x514 <= 1
 0 <= x515 <= 1
 0 <= x516 <= 1
 0 <= x517 <= 1
 0 <= x518 <= 1
 0 <= x519 <= 1
 0 <= x520 <= 1
 0 <= x521 <= 1
 0 <= x522 <= 1
 0 <= x523 <= 1
 0 <= x524 <= 1
 0 <= x525 <= 1
 0 <= x526 <= 1
 0 <= x527 <= 1
 0 <= x528 <= 1
 0 <= x529 <= 1
 0 <= x530 <= 1
 0 <= x531 <= 1
 0 <= x532 <= 1
 0 <= x533 <= 1
 0 <= x534 <= 1
 0 <= x535 <= 1
 0 <= x536 <= 1
 0 <= x537 <= 1
 0 <= x538 <= 1
 0 <= x539 <= 1
 0 <= x540 <= 1
 0 <= x541 <= 1
 0 <= x542 <= 1
 0 <= x543 <= 1
 0 <= x544 <= 1
 0 <= x545 <= 1
 0 <= x546 <= 1
 0 <= x547 <= 1
 0 <= x548 <= 1
 0 <= x549 <= 1
 0 <= x550 <= 1
 0 <= x551 <= 1
 0 <= x552 <= 1
 0 <= x553 <= 1
 0 <= x554 <= 1
 0 <= x555 <= 1
 0 <= x556 <= 1
 0 <= x557 <= 1
 0 <= x558 <= 1
 0 <= x559 <= 1
 0 <= x560 <= 1
 0 <= x561 <= 1
 0 <= x562 <= 1
 0 <= x563 <= 1
 0 <= x564 <= 1
 0 <= x565 <= 1
 0 <= x566 <= 1
 0 <= x567 <= 1
 0 <= x568 <= 1
 0 <= x569 <= 1
 0 <= x570 <= 1
 0 <= x571 <= 1
 0 <= x572 <= 1
 0 <= x573 <= 1
 0 <= x574 <= 1
 0 <= x575 <= 1
 0 <= x576 <= 1
 0 <= x577 <= 1
 0 <= x578 <= 1
 0 <= x579 <= 1
 0 <= x580 <= 1
 0 <= x581 <= 1
 0 <= x582 <= 1
 0 <= x583 <= 1
 0 <= x584 <= 1
 0 <= x585 <= 1
 0 <= x586 <= 1
 0 <= x587 <= 1
 0 <= x588 <= 1
 0 <= x589 <= 1
 0 <= x590 <= 1
 0 <= x591 <= 1
 0 <= x592 <= 1
 0 <= x593 <= 1
 0 <= x594 <= 1
 0 <= x595 <= 1
 0 <= x596 <= 1
 0 <= x597 <= 1
 0 <= x598 <= 1
 0 <= x599 <= 1
 0 <= x600 <= 1
 0 <= x601 <= 1
 0 <= x602 <= 1
 0 <= x603 <= 1
 0 <= x604 <= 1
 0 <= x605 <= 1
 0 <= x606 <= 1
 0 <= x607 <= 1
 0 <= x608 <= 1
 0 <= x609 <= 1
 0 <= x610 <= 1
 0 <= x611 <= 1
 0 <= x612 <= 1
 0 <= x613 <= 1
 0 <= x614 <= 1
 0 <= x615 <= 1
 0 <= x616 <= 1
 0 <= x617 <= 1
 0 <= x618 <= 1
 0 <= x619 <= 1
 0 <= x620 <= 1
 0 <= x621 <= 1
 0 <= x622 <= 1
Binaries
 x1  x2  x3  x4  x5  x6  x7  x8  x9  x10  x11  x12  x13  x14  x15  x16  x17 
 x18  x19  x20  x21  x22  x23  x24  x25  x26  x27  x28  x29  x30  x31  x32 
 x33  x34  x35  x36  x37  x38  x39  x40  x41  x42  x43  x44  x45  x46  x47 
 x48  x49  x50  x51  x52  x53  x54  x55  x56  x57  x58  x59  x60  x61  x62 
 x63  x64  x65  x66  x67  x68  x69  x70  x71  x72  x73  x74  x75  x76  x77 
 x78  x79  x80  x81  x82  x83  x84  x85  x86  x87  x88  x89  x90  x91  x92 
 x93  x94  x95  x96  x97  x98  x99  x100  x101  x102  x103  x104  x105  x106 
 x107  x108  x109  x110  x111  x112  x113  x114  x115  x116  x117  x118  x119 
 x120  x121  x122  x123  x124  x125  x126  x127  x128  x129  x130  x131  x132 
 x133  x134  x135  x136  x137  x138  x139  x140  x141  x142  x143  x144  x145 
 x146  x147  x148  x149  x150  x151  x152  x153  x154  x155  x156  x157  x158 
 x159  x160  x161  x162  x163  x164  x165  x166  x167  x168  x169  x170  x171 
 x172  x173  x174  x175  x176  x177  x178  x179  x180  x181  x182  x183  x184 
 x185  x186  x187  x188  x189  x190  x191  x192  x193  x194  x195  x196  x197 
 x198  x199  x200  x201  x202  x203  x204  x205  x206  x207  x208  x209  x210 
 x211  x212  x213  x214  x215  x216  x217  x218  x219  x220  x221  x222  x223 
 x224  x225  x226  x227  x228  x229  x230  x231  x232  x233  x234  x235  x236 
 x237  x238  x239  x240  x241  x242  x243  x244  x245  x246  x247  x248  x249 
 x250  x251  x252  x253  x254  x255  x256  x257  x258  x259  x260  x261  x262 
 x263  x264  x265  x266  x267  x268  x269  x270  x271  x272  x273  x274  x275 
 x276  x277  x278  x279  x280  x281  x282  x283  x284  x285  x286  x287  x288 
 x289  x290  x291  x292  x293  x294  x295  x296  x297  x298  x299  x300  x301 
 x302  x303  x304  x305  x306  x307  x308  x309  x310  x311  x312  x313  x314 
 x315  x316  x317  x318  x319  x320  x321  x322  x323  x324  x325  x326  x327 
 x328  x329  x330  x331  x332  x333  x334  x335  x336  x337  x338  x339  x340 
 x341  x342  x343  x344  x345  x346  x347  x348  x349  x350  x351  x352  x353 
 x354  x355  x356  x357  x358  x359  x360  x361  x362  x363  x364  x365  x366 
 x367  x368  x369  x370  x371  x372  x373  x374  x375  x376  x377  x378  x379 
 x380  x381  x382  x383  x384  x385  x386  x387  x388  x389  x390  x391  x392 
 x393  x394  x395  x396  x397  x398  x399  x400  x401  x402  x403  x404  x405 
 x406  x407  x408  x409  x410  x411  x412  x413  x414  x415  x416  x417  x418 
 x419  x420  x421  x422  x423  x424  x425  x426  x427  x428  x429  x430  x431 
 x432  x433  x434  x435  x436  x437  x438  x439  x440  x441  x442  x443  x444 
 x445  x446  x447  x448  x449  x450  x451  x452  x453  x454  x455  x456  x457 
 x458  x459  x460  x461  x462  x463  x464  x465  x466  x467  x468  x469  x470 
 x471  x472  x473  x474  x475  x476  x477  x478  x479  x480  x481  x482  x483 
 x484  x485  x486  x487  x488  x489  x490  x491  x492  x493  x494  x495  x496 
 x497  x498  x499  x500  x501  x502  x503  x504  x505  x506  x507  x508  x509 
 x510  x511  x512  x513  x514  x515  x516  x517  x518  x519  x520  x521  x522 
 x523  x524  x525  x526  x527  x528  x529  x530  x531  x532  x533  x534  x535 
 x536  x537  x538  x539  x540  x541  x542  x543  x544  x545  x546  x547  x548 
 x549  x550  x551  x552  x553  x554  x555  x556  x557  x558  x559  x560  x561 
 x562  x563  x564  x565  x566  x567  x568  x569  x570  x571  x572  x573  x574 
 x575  x576  x577  x578  x579  x580  x581  x582  x583  x584  x585  x586  x587 
 x588  x589  x590  x591  x592  x593  x594  x595  x596  x597  x598  x599  x600 
 x601  x602  x603  x604  x605  x606  x607  x608  x609  x610  x611  x612  x613 
 x614  x615  x616  x617  x618  x619  x620  x621  x622 
End
